etc/upTests/__failed/IntPairToTuple/0003.eprime.solution
language ESSENCE' 1.0
$ minion Nodes: 5
$ minion TotalTime: 0.000671
$ minion TimeOut: 0
$ Savile Row TotalTime: 0.177
letting f_FunctionIntPair2D_tuple1 be [[2, 2;int(1..2)];int(1)]
letting f_FunctionIntPair2D_tuple2 be [[1, 1;int(1..2)];int(1)]
